sat
(
  (define-fun ProcProv3 () Int
    4)
  (define-fun C3_VM2 () Int
    1)
  (define-fun C1_VM3 () Int
    1)
  (define-fun ProcProv5 () Int
    4)
  (define-fun MemProv2 () Int
    68400)
  (define-fun C1_VM2 () Int
    0)
  (define-fun PriceProv4 () Int
    1288)
  (define-fun C5_VM1 () Int
    1)
  (define-fun PriceProv1 () Int
    402)
  (define-fun C1_VM6 () Int
    0)
  (define-fun C5_VM4 () Int
    0)
  (define-fun C2_VM3 () Int
    0)
  (define-fun C3_VM4 () Int
    0)
  (define-fun PriceProv5 () Int
    402)
  (define-fun ProcProv4 () Int
    8)
  (define-fun C1_VM5 () Int
    0)
  (define-fun C2_VM2 () Int
    0)
  (define-fun C5_VM6 () Int
    0)
  (define-fun PriceProv2 () Int
    1288)
  (define-fun StorageProv3 () Int
    1000)
  (define-fun C3_VM1 () Int
    0)
  (define-fun C3_VM5 () Int
    0)
  (define-fun C4_VM3 () Int
    0)
  (define-fun VM2Type () Int
    12)
  (define-fun VM6Type () Int
    0)
  (define-fun VM3Type () Int
    15)
  (define-fun PriceProv6 () Int
    0)
  (define-fun MemProv5 () Int
    15000)
  (define-fun C3_VM6 () Int
    0)
  (define-fun C5_VM3 () Int
    0)
  (define-fun C2_VM1 () Int
    1)
  (define-fun MemProv4 () Int
    68400)
  (define-fun C2_VM6 () Int
    0)
  (define-fun StorageProv5 () Int
    2000)
  (define-fun C5_VM5 () Int
    1)
  (define-fun C4_VM4 () Int
    1)
  (define-fun C4_VM6 () Int
    0)
  (define-fun ProcProv6 () Int
    7)
  (define-fun C3_VM3 () Int
    0)
  (define-fun ProcProv1 () Int
    4)
  (define-fun C2_VM5 () Int
    1)
  (define-fun VM5Type () Int
    13)
  (define-fun C4_VM5 () Int
    0)
  (define-fun C1_VM4 () Int
    0)
  (define-fun StorageProv1 () Int
    2000)
  (define-fun MemProv3 () Int
    30500)
  (define-fun C5_VM2 () Int
    1)
  (define-fun StorageProv4 () Int
    2000)
  (define-fun C2_VM4 () Int
    0)
  (define-fun StorageProv6 () Int
    1999)
  (define-fun C4_VM2 () Int
    0)
  (define-fun StorageProv2 () Int
    2000)
  (define-fun C4_VM1 () Int
    0)
  (define-fun VM1Type () Int
    13)
  (define-fun MemProv1 () Int
    15000)
  (define-fun ProcProv2 () Int
    8)
  (define-fun MemProv6 () Int
    68401)
  (define-fun PriceProv3 () Int
    379)
  (define-fun VM4Type () Int
    12)
  (define-fun C1_VM1 () Int
    0)
)
(objectives
 ( 12)
 ((+ 0 PriceProv1 PriceProv2 PriceProv3 PriceProv4 PriceProv5 PriceProv6) 3759)
)
(:added-eqs                   71404
 :arith-eq-adapter            7928
 :arith-bound-propagations-lp 3730
 :arith-conflicts             22
 :arith-diseq                 80243
 :arith-fixed-eqs             1539
 :arith-lower                 85182
 :arith-make-feasible         9611
 :arith-max-columns           125
 :arith-max-rows              20
 :arith-upper                 90006
 :binary-propagations         326888
 :conflicts                   1702
 :decisions                   17113
 :del-clause                  11438
 :final-checks                45
 :max-memory                  42.16
 :memory                      42.16
 :minimized-lits              10882
 :mk-bool-var                 16821
 :mk-clause                   12323
 :mk-clause-binary            2805
 :num-allocs                  19318028
 :num-checks                  46
 :pb-conflicts                601
 :pb-predicates               314
 :pb-propagations             11604
 :pb-resolves                 590
 :propagations                542632
 :restarts                    10
 :rlimit-count                3072884
 :solve-eqs-elim-vars         1
 :solve-eqs-steps             10
 :time                        0.15
 :total-time                  0.15)
